p cnf 361 1
361 0
w 1 0.42546
w 2 1 0
w 2 -1 1
w 3 2 0
w 3 -2 1
w 4 3 0
w 4 -3 1
w 5 4 0
w 5 -4 1
w 6 5 0.76811
w 6 -5 0.60853
w 7 6 0
w 7 -6 1
w 8 7 0.47851
w 8 -7 0.604187
w 9 8 1
w 9 -8 0
w 10 9 1
w 10 -9 0
w 11 10 0
w 11 -10 1
w 12 11 0.949111
w 12 -11 0.291873
w 13 12 0
w 13 -12 1
w 14 13 0
w 14 -13 1
w 15 14 0
w 15 -14 1
w 16 15 0
w 16 -15 1
w 17 16 0.89783
w 17 -16 0.548248
w 18 17 1
w 18 -17 0
w 19 18 1
w 19 -18 0
w 20 1 0.0625361
w 20 -1 0.578558
w 21 20 2 0.865101
w 21 20 -2 0.0570677
w 21 -20 2 0.533157
w 21 -20 -2 0.117648
w 22 21 3 0
w 22 21 -3 1
w 22 -21 3 1
w 22 -21 -3 0
w 23 22 4 1
w 23 22 -4 0
w 23 -22 4 0
w 23 -22 -4 1
w 24 23 5 0
w 24 23 -5 1
w 24 -23 5 1
w 24 -23 -5 0
w 25 24 6 1
w 25 24 -6 0
w 25 -24 6 1
w 25 -24 -6 1
w 26 25 7 0.235658
w 26 25 -7 0.658604
w 26 -25 7 0.675511
w 26 -25 -7 0.298194
w 27 26 8 1
w 27 26 -8 0
w 27 -26 8 1
w 27 -26 -8 1
w 28 27 9 0
w 28 27 -9 1
w 28 -27 9 1
w 28 -27 -9 1
w 29 28 10 0.906396
w 29 28 -10 0.94191
w 29 -28 10 0.0186473
w 29 -28 -10 0.79918
w 30 29 11 1
w 30 29 -11 1
w 30 -29 11 0
w 30 -29 -11 1
w 31 30 12 0.05203
w 31 30 -12 0.226619
w 31 -30 12 0.56769
w 31 -30 -12 0.833682
w 32 31 13 0.395343
w 32 31 -13 0.0693406
w 32 -31 13 0.45717
w 32 -31 -13 0.070854
w 33 32 14 1
w 33 32 -14 0
w 33 -32 14 0
w 33 -32 -14 0
w 34 33 15 0.811772
w 34 33 -15 0.572951
w 34 -33 15 0.649331
w 34 -33 -15 0.973845
w 35 34 16 0.430898
w 35 34 -16 0.880241
w 35 -34 16 0.803455
w 35 -34 -16 0.449545
w 36 35 17 0
w 36 35 -17 1
w 36 -35 17 1
w 36 -35 -17 1
w 37 36 18 0.46892
w 37 36 -18 0.795478
w 37 -36 18 0.175936
w 37 -36 -18 0.0366095
w 38 37 19 1
w 38 37 -19 0
w 38 -37 19 0
w 38 -37 -19 0
w 39 20 1
w 39 -20 0
w 40 39 21 1
w 40 39 -21 1
w 40 -39 21 0
w 40 -39 -21 1
w 41 40 22 1
w 41 40 -22 0
w 41 -40 22 1
w 41 -40 -22 1
w 42 41 23 0
w 42 41 -23 0
w 42 -41 23 0
w 42 -41 -23 1
w 43 42 24 1
w 43 42 -24 0
w 43 -42 24 0
w 43 -42 -24 1
w 44 43 25 0
w 44 43 -25 1
w 44 -43 25 1
w 44 -43 -25 1
w 45 44 26 1
w 45 44 -26 0
w 45 -44 26 1
w 45 -44 -26 0
w 46 45 27 0
w 46 45 -27 1
w 46 -45 27 0
w 46 -45 -27 0
w 47 46 28 0
w 47 46 -28 1
w 47 -46 28 0
w 47 -46 -28 0
w 48 47 29 1
w 48 47 -29 0
w 48 -47 29 1
w 48 -47 -29 0
w 49 48 30 0.196033
w 49 48 -30 0.991109
w 49 -48 30 0.394099
w 49 -48 -30 0.21682
w 50 49 31 1
w 50 49 -31 1
w 50 -49 31 0
w 50 -49 -31 0
w 51 50 32 1
w 51 50 -32 1
w 51 -50 32 0
w 51 -50 -32 0
w 52 51 33 1
w 52 51 -33 0
w 52 -51 33 1
w 52 -51 -33 0
w 53 52 34 1
w 53 52 -34 0
w 53 -52 34 0
w 53 -52 -34 0
w 54 53 35 1
w 54 53 -35 1
w 54 -53 35 0
w 54 -53 -35 1
w 55 54 36 0
w 55 54 -36 1
w 55 -54 36 1
w 55 -54 -36 0
w 56 55 37 0
w 56 55 -37 1
w 56 -55 37 1
w 56 -55 -37 0
w 57 56 38 1
w 57 56 -38 1
w 57 -56 38 1
w 57 -56 -38 0
w 58 39 1
w 58 -39 0
w 59 58 40 0
w 59 58 -40 0
w 59 -58 40 1
w 59 -58 -40 1
w 60 59 41 0
w 60 59 -41 1
w 60 -59 41 1
w 60 -59 -41 0
w 61 60 42 1
w 61 60 -42 1
w 61 -60 42 0
w 61 -60 -42 0
w 62 61 43 1
w 62 61 -43 1
w 62 -61 43 1
w 62 -61 -43 0
w 63 62 44 0
w 63 62 -44 1
w 63 -62 44 0
w 63 -62 -44 0
w 64 63 45 0
w 64 63 -45 1
w 64 -63 45 1
w 64 -63 -45 1
w 65 64 46 0.0501806
w 65 64 -46 0.0185824
w 65 -64 46 0.585721
w 65 -64 -46 0.600219
w 66 65 47 0.833905
w 66 65 -47 0.513487
w 66 -65 47 0.165463
w 66 -65 -47 0.1373
w 67 66 48 0
w 67 66 -48 0
w 67 -66 48 1
w 67 -66 -48 1
w 68 67 49 0.199978
w 68 67 -49 0.747253
w 68 -67 49 0.695823
w 68 -67 -49 0.997386
w 69 68 50 0.949655
w 69 68 -50 0.174174
w 69 -68 50 0.670921
w 69 -68 -50 0.101839
w 70 69 51 1
w 70 69 -51 0
w 70 -69 51 1
w 70 -69 -51 0
w 71 70 52 0.9345
w 71 70 -52 0.0583699
w 71 -70 52 0.819557
w 71 -70 -52 0.520221
w 72 71 53 1
w 72 71 -53 1
w 72 -71 53 0
w 72 -71 -53 1
w 73 72 54 1
w 73 72 -54 1
w 73 -72 54 0
w 73 -72 -54 0
w 74 73 55 0
w 74 73 -55 1
w 74 -73 55 1
w 74 -73 -55 0
w 75 74 56 0
w 75 74 -56 0
w 75 -74 56 1
w 75 -74 -56 0
w 76 75 57 1
w 76 75 -57 0
w 76 -75 57 1
w 76 -75 -57 0
w 77 58 1
w 77 -58 0
w 78 77 59 0
w 78 77 -59 1
w 78 -77 59 1
w 78 -77 -59 1
w 79 78 60 1
w 79 78 -60 0
w 79 -78 60 1
w 79 -78 -60 0
w 80 79 61 1
w 80 79 -61 1
w 80 -79 61 1
w 80 -79 -61 0
w 81 80 62 0
w 81 80 -62 0
w 81 -80 62 0
w 81 -80 -62 1
w 82 81 63 1
w 82 81 -63 1
w 82 -81 63 0
w 82 -81 -63 1
w 83 82 64 0.180118
w 83 82 -64 0.875965
w 83 -82 64 0.432502
w 83 -82 -64 0.271077
w 84 83 65 0
w 84 83 -65 1
w 84 -83 65 0
w 84 -83 -65 1
w 85 84 66 0.64543
w 85 84 -66 0.599153
w 85 -84 66 0.223854
w 85 -84 -66 0.469502
w 86 85 67 0.299612
w 86 85 -67 0.199597
w 86 -85 67 0.603834
w 86 -85 -67 0.51242
w 87 86 68 1
w 87 86 -68 1
w 87 -86 68 0
w 87 -86 -68 1
w 88 87 69 0
w 88 87 -69 1
w 88 -87 69 1
w 88 -87 -69 0
w 89 88 70 0.104392
w 89 88 -70 0.273206
w 89 -88 70 0.345614
w 89 -88 -70 0.375469
w 90 89 71 0
w 90 89 -71 0
w 90 -89 71 1
w 90 -89 -71 1
w 91 90 72 0
w 91 90 -72 0
w 91 -90 72 1
w 91 -90 -72 0
w 92 91 73 0
w 92 91 -73 0
w 92 -91 73 0
w 92 -91 -73 1
w 93 92 74 0.632974
w 93 92 -74 0.979842
w 93 -92 74 0.591509
w 93 -92 -74 0.741753
w 94 93 75 0
w 94 93 -75 1
w 94 -93 75 1
w 94 -93 -75 0
w 95 94 76 0
w 95 94 -76 1
w 95 -94 76 0
w 95 -94 -76 0
w 96 77 0
w 96 -77 1
w 97 96 78 1
w 97 96 -78 1
w 97 -96 78 0
w 97 -96 -78 0
w 98 97 79 0
w 98 97 -79 1
w 98 -97 79 0
w 98 -97 -79 0
w 99 98 80 0
w 99 98 -80 1
w 99 -98 80 1
w 99 -98 -80 0
w 100 99 81 1
w 100 99 -81 0
w 100 -99 81 1
w 100 -99 -81 1
w 101 100 82 0
w 101 100 -82 1
w 101 -100 82 0
w 101 -100 -82 0
w 102 101 83 1
w 102 101 -83 1
w 102 -101 83 1
w 102 -101 -83 0
w 103 102 84 0.267015
w 103 102 -84 0.637147
w 103 -102 84 0.712277
w 103 -102 -84 0.817701
w 104 103 85 0
w 104 103 -85 1
w 104 -103 85 0
w 104 -103 -85 0
w 105 104 86 1
w 105 104 -86 1
w 105 -104 86 1
w 105 -104 -86 0
w 106 105 87 0.321716
w 106 105 -87 0.480838
w 106 -105 87 0.134253
w 106 -105 -87 0.291861
w 107 106 88 1
w 107 106 -88 1
w 107 -106 88 1
w 107 -106 -88 0
w 108 107 89 0.0340109
w 108 107 -89 0.868667
w 108 -107 89 0.190471
w 108 -107 -89 0.316024
w 109 108 90 0.981478
w 109 108 -90 0.583039
w 109 -108 90 0.496959
w 109 -108 -90 0.693755
w 110 109 91 0
w 110 109 -91 0
w 110 -109 91 1
w 110 -109 -91 0
w 111 110 92 0
w 111 110 -92 0
w 111 -110 92 1
w 111 -110 -92 0
w 112 111 93 0
w 112 111 -93 1
w 112 -111 93 0
w 112 -111 -93 0
w 113 112 94 1
w 113 112 -94 0
w 113 -112 94 1
w 113 -112 -94 1
w 114 113 95 1
w 114 113 -95 0
w 114 -113 95 0
w 114 -113 -95 0
w 115 96 1
w 115 -96 0
w 116 115 97 0.760399
w 116 115 -97 0.28328
w 116 -115 97 0.180234
w 116 -115 -97 0.686265
w 117 116 98 0
w 117 116 -98 1
w 117 -116 98 1
w 117 -116 -98 1
w 118 117 99 1
w 118 117 -99 0
w 118 -117 99 1
w 118 -117 -99 1
w 119 118 100 1
w 119 118 -100 0
w 119 -118 100 1
w 119 -118 -100 1
w 120 119 101 0
w 120 119 -101 0
w 120 -119 101 0
w 120 -119 -101 1
w 121 120 102 1
w 121 120 -102 1
w 121 -120 102 0
w 121 -120 -102 0
w 122 121 103 0.0432256
w 122 121 -103 0.295374
w 122 -121 103 0.0202218
w 122 -121 -103 0.729491
w 123 122 104 0
w 123 122 -104 1
w 123 -122 104 0
w 123 -122 -104 1
w 124 123 105 1
w 124 123 -105 0
w 124 -123 105 0
w 124 -123 -105 0
w 125 124 106 1
w 125 124 -106 0
w 125 -124 106 0
w 125 -124 -106 0
w 126 125 107 0
w 126 125 -107 0
w 126 -125 107 1
w 126 -125 -107 0
w 127 126 108 0
w 127 126 -108 1
w 127 -126 108 0
w 127 -126 -108 0
w 128 127 109 0.341619
w 128 127 -109 0.660306
w 128 -127 109 0.29025
w 128 -127 -109 0.361841
w 129 128 110 1
w 129 128 -110 0
w 129 -128 110 1
w 129 -128 -110 1
w 130 129 111 0
w 130 129 -111 1
w 130 -129 111 0
w 130 -129 -111 0
w 131 130 112 0.980749
w 131 130 -112 0.799776
w 131 -130 112 0.152995
w 131 -130 -112 0.57424
w 132 131 113 1
w 132 131 -113 1
w 132 -131 113 1
w 132 -131 -113 0
w 133 132 114 1
w 133 132 -114 1
w 133 -132 114 1
w 133 -132 -114 0
w 134 115 0
w 134 -115 1
w 135 134 116 1
w 135 134 -116 1
w 135 -134 116 1
w 135 -134 -116 0
w 136 135 117 0
w 136 135 -117 1
w 136 -135 117 1
w 136 -135 -117 0
w 137 136 118 1
w 137 136 -118 0
w 137 -136 118 1
w 137 -136 -118 0
w 138 137 119 0
w 138 137 -119 0
w 138 -137 119 1
w 138 -137 -119 1
w 139 138 120 0.183089
w 139 138 -120 0.663511
w 139 -138 120 0.284678
w 139 -138 -120 0.775566
w 140 139 121 0.726352
w 140 139 -121 0.869674
w 140 -139 121 0.576585
w 140 -139 -121 0.162902
w 141 140 122 1
w 141 140 -122 1
w 141 -140 122 0
w 141 -140 -122 0
w 142 141 123 1
w 142 141 -123 0
w 142 -141 123 0
w 142 -141 -123 0
w 143 142 124 1
w 143 142 -124 1
w 143 -142 124 1
w 143 -142 -124 0
w 144 143 125 1
w 144 143 -125 0
w 144 -143 125 0
w 144 -143 -125 0
w 145 144 126 0.312652
w 145 144 -126 0.695225
w 145 -144 126 0.439607
w 145 -144 -126 0.59733
w 146 145 127 0
w 146 145 -127 0
w 146 -145 127 1
w 146 -145 -127 0
w 147 146 128 0
w 147 146 -128 1
w 147 -146 128 0
w 147 -146 -128 0
w 148 147 129 1
w 148 147 -129 1
w 148 -147 129 0
w 148 -147 -129 0
w 149 148 130 0.426299
w 149 148 -130 0.617447
w 149 -148 130 0.809604
w 149 -148 -130 0.00174252
w 150 149 131 0
w 150 149 -131 0
w 150 -149 131 1
w 150 -149 -131 0
w 151 150 132 1
w 151 150 -132 1
w 151 -150 132 0
w 151 -150 -132 0
w 152 151 133 0.394891
w 152 151 -133 0.897741
w 152 -151 133 0.308607
w 152 -151 -133 0.222591
w 153 134 0
w 153 -134 1
w 154 153 135 1
w 154 153 -135 1
w 154 -153 135 0
w 154 -153 -135 1
w 155 154 136 1
w 155 154 -136 1
w 155 -154 136 0
w 155 -154 -136 0
w 156 155 137 0
w 156 155 -137 1
w 156 -155 137 1
w 156 -155 -137 1
w 157 156 138 0.265965
w 157 156 -138 0.00982237
w 157 -156 138 0.628143
w 157 -156 -138 0.970134
w 158 157 139 0.125493
w 158 157 -139 0.11391
w 158 -157 139 0.560609
w 158 -157 -139 0.0936337
w 159 158 140 0
w 159 158 -140 1
w 159 -158 140 0
w 159 -158 -140 0
w 160 159 141 0
w 160 159 -141 1
w 160 -159 141 0
w 160 -159 -141 0
w 161 160 142 1
w 161 160 -142 0
w 161 -160 142 1
w 161 -160 -142 1
w 162 161 143 1
w 162 161 -143 0
w 162 -161 143 0
w 162 -161 -143 1
w 163 162 144 0
w 163 162 -144 0
w 163 -162 144 1
w 163 -162 -144 1
w 164 163 145 0.264532
w 164 163 -145 0.0450748
w 164 -163 145 0.40168
w 164 -163 -145 0.358166
w 165 164 146 0
w 165 164 -146 1
w 165 -164 146 1
w 165 -164 -146 0
w 166 165 147 1
w 166 165 -147 1
w 166 -165 147 1
w 166 -165 -147 0
w 167 166 148 0.974076
w 167 166 -148 0.438192
w 167 -166 148 0.286887
w 167 -166 -148 0.122925
w 168 167 149 0.785838
w 168 167 -149 0.807804
w 168 -167 149 0.490432
w 168 -167 -149 0.630536
w 169 168 150 1
w 169 168 -150 0
w 169 -168 150 0
w 169 -168 -150 1
w 170 169 151 0
w 170 169 -151 1
w 170 -169 151 0
w 170 -169 -151 0
w 171 170 152 1
w 171 170 -152 0
w 171 -170 152 0
w 171 -170 -152 1
w 172 153 1
w 172 -153 0
w 173 172 154 0
w 173 172 -154 0
w 173 -172 154 1
w 173 -172 -154 0
w 174 173 155 0
w 174 173 -155 1
w 174 -173 155 1
w 174 -173 -155 1
w 175 174 156 0.110922
w 175 174 -156 0.189159
w 175 -174 156 0.2799
w 175 -174 -156 0.568661
w 176 175 157 1
w 176 175 -157 1
w 176 -175 157 1
w 176 -175 -157 0
w 177 176 158 0.921669
w 177 176 -158 0.212212
w 177 -176 158 0.247911
w 177 -176 -158 0.212212
w 178 177 159 1
w 178 177 -159 0
w 178 -177 159 0
w 178 -177 -159 1
w 179 178 160 0.396869
w 179 178 -160 0.332587
w 179 -178 160 0.274358
w 179 -178 -160 0.775338
w 180 179 161 1
w 180 179 -161 0
w 180 -179 161 0
w 180 -179 -161 1
w 181 180 162 1
w 181 180 -162 1
w 181 -180 162 0
w 181 -180 -162 1
w 182 181 163 1
w 182 181 -163 0
w 182 -181 163 0
w 182 -181 -163 0
w 183 182 164 0
w 183 182 -164 1
w 183 -182 164 0
w 183 -182 -164 1
w 184 183 165 0
w 184 183 -165 0
w 184 -183 165 0
w 184 -183 -165 1
w 185 184 166 0
w 185 184 -166 0
w 185 -184 166 1
w 185 -184 -166 0
w 186 185 167 0
w 186 185 -167 1
w 186 -185 167 1
w 186 -185 -167 1
w 187 186 168 0.985128
w 187 186 -168 0.282468
w 187 -186 168 0.223122
w 187 -186 -168 0.999518
w 188 187 169 0
w 188 187 -169 1
w 188 -187 169 0
w 188 -187 -169 0
w 189 188 170 0
w 189 188 -170 1
w 189 -188 170 0
w 189 -188 -170 0
w 190 189 171 0
w 190 189 -171 1
w 190 -189 171 0
w 190 -189 -171 0
w 191 172 0
w 191 -172 1
w 192 191 173 0
w 192 191 -173 0
w 192 -191 173 0
w 192 -191 -173 1
w 193 192 174 1
w 193 192 -174 0
w 193 -192 174 1
w 193 -192 -174 1
w 194 193 175 0
w 194 193 -175 1
w 194 -193 175 0
w 194 -193 -175 1
w 195 194 176 0.939599
w 195 194 -176 0.804876
w 195 -194 176 0.167767
w 195 -194 -176 0.513781
w 196 195 177 1
w 196 195 -177 0
w 196 -195 177 0
w 196 -195 -177 1
w 197 196 178 1
w 197 196 -178 0
w 197 -196 178 0
w 197 -196 -178 1
w 198 197 179 0.0916768
w 198 197 -179 0.782534
w 198 -197 179 0.222838
w 198 -197 -179 0.239826
w 199 198 180 0.46063
w 199 198 -180 0.903295
w 199 -198 180 0.201935
w 199 -198 -180 0.760743
w 200 199 181 0
w 200 199 -181 0
w 200 -199 181 1
w 200 -199 -181 0
w 201 200 182 0.781345
w 201 200 -182 0.802057
w 201 -200 182 0.0750324
w 201 -200 -182 0.295126
w 202 201 183 0
w 202 201 -183 1
w 202 -201 183 1
w 202 -201 -183 1
w 203 202 184 0.652927
w 203 202 -184 0.740723
w 203 -202 184 0.698347
w 203 -202 -184 0.662071
w 204 203 185 1
w 204 203 -185 0
w 204 -203 185 0
w 204 -203 -185 1
w 205 204 186 1
w 205 204 -186 0
w 205 -204 186 0
w 205 -204 -186 0
w 206 205 187 0
w 206 205 -187 0
w 206 -205 187 1
w 206 -205 -187 0
w 207 206 188 1
w 207 206 -188 0
w 207 -206 188 1
w 207 -206 -188 0
w 208 207 189 1
w 208 207 -189 1
w 208 -207 189 0
w 208 -207 -189 0
w 209 208 190 0.00914439
w 209 208 -190 0.95817
w 209 -208 190 0.672232
w 209 -208 -190 0.671216
w 210 191 0
w 210 -191 1
w 211 210 192 0
w 211 210 -192 1
w 211 -210 192 1
w 211 -210 -192 0
w 212 211 193 1
w 212 211 -193 0
w 212 -211 193 1
w 212 -211 -193 1
w 213 212 194 0
w 213 212 -194 1
w 213 -212 194 1
w 213 -212 -194 0
w 214 213 195 1
w 214 213 -195 1
w 214 -213 195 0
w 214 -213 -195 0
w 215 214 196 1
w 215 214 -196 0
w 215 -214 196 1
w 215 -214 -196 1
w 216 215 197 1
w 216 215 -197 0
w 216 -215 197 1
w 216 -215 -197 1
w 217 216 198 0.846851
w 217 216 -198 0.538583
w 217 -216 198 0.279243
w 217 -216 -198 0.274194
w 218 217 199 0
w 218 217 -199 0
w 218 -217 199 1
w 218 -217 -199 1
w 219 218 200 0
w 219 218 -200 1
w 219 -218 200 0
w 219 -218 -200 1
w 220 219 201 0
w 220 219 -201 0
w 220 -219 201 1
w 220 -219 -201 0
w 221 220 202 0.150887
w 221 220 -202 0.701965
w 221 -220 202 0.87332
w 221 -220 -202 0.555533
w 222 221 203 0
w 222 221 -203 0
w 222 -221 203 0
w 222 -221 -203 1
w 223 222 204 0.466636
w 223 222 -204 0.511014
w 223 -222 204 0.45678
w 223 -222 -204 0.745878
w 224 223 205 0.896429
w 224 223 -205 0.450371
w 224 -223 205 0.000199929
w 224 -223 -205 0.360218
w 225 224 206 0.191528
w 225 224 -206 0.314544
w 225 -224 206 0.235955
w 225 -224 -206 0.236476
w 226 225 207 0
w 226 225 -207 1
w 226 -225 207 0
w 226 -225 -207 1
w 227 226 208 0.173836
w 227 226 -208 0.893273
w 227 -226 208 0.518838
w 227 -226 -208 0.0471553
w 228 227 209 0
w 228 227 -209 0
w 228 -227 209 0
w 228 -227 -209 1
w 229 210 0
w 229 -210 1
w 230 229 211 0
w 230 229 -211 1
w 230 -229 211 0
w 230 -229 -211 0
w 231 230 212 0
w 231 230 -212 1
w 231 -230 212 0
w 231 -230 -212 1
w 232 231 213 0
w 232 231 -213 0
w 232 -231 213 1
w 232 -231 -213 0
w 233 232 214 0
w 233 232 -214 0
w 233 -232 214 0
w 233 -232 -214 1
w 234 233 215 1
w 234 233 -215 0
w 234 -233 215 0
w 234 -233 -215 1
w 235 234 216 0
w 235 234 -216 1
w 235 -234 216 0
w 235 -234 -216 0
w 236 235 217 0.564258
w 236 235 -217 0.709717
w 236 -235 217 0.829369
w 236 -235 -217 0.202819
w 237 236 218 0.770243
w 237 236 -218 0.201598
w 237 -236 218 0.996053
w 237 -236 -218 0.902646
w 238 237 219 0
w 238 237 -219 0
w 238 -237 219 0
w 238 -237 -219 1
w 239 238 220 0
w 239 238 -220 1
w 239 -238 220 0
w 239 -238 -220 0
w 240 239 221 0.911762
w 240 239 -221 0.108549
w 240 -239 221 0.105636
w 240 -239 -221 0.283477
w 241 240 222 1
w 241 240 -222 0
w 241 -240 222 0
w 241 -240 -222 1
w 242 241 223 1
w 242 241 -223 1
w 242 -241 223 0
w 242 -241 -223 1
w 243 242 224 1
w 243 242 -224 0
w 243 -242 224 0
w 243 -242 -224 1
w 244 243 225 1
w 244 243 -225 0
w 244 -243 225 0
w 244 -243 -225 1
w 245 244 226 0
w 245 244 -226 1
w 245 -244 226 0
w 245 -244 -226 1
w 246 245 227 0.625109
w 246 245 -227 0.35237
w 246 -245 227 0.0467029
w 246 -245 -227 0.730745
w 247 246 228 0
w 247 246 -228 0
w 247 -246 228 1
w 247 -246 -228 0
w 248 229 0.996383
w 248 -229 0.993832
w 249 248 230 0.858495
w 249 248 -230 0.642451
w 249 -248 230 0.0980987
w 249 -248 -230 0.646159
w 250 249 231 1
w 250 249 -231 1
w 250 -249 231 1
w 250 -249 -231 0
w 251 250 232 1
w 251 250 -232 1
w 251 -250 232 0
w 251 -250 -232 0
w 252 251 233 0
w 252 251 -233 1
w 252 -251 233 0
w 252 -251 -233 0
w 253 252 234 0.401756
w 253 252 -234 0.0349384
w 253 -252 234 0.431784
w 253 -252 -234 0.645785
w 254 253 235 0
w 254 253 -235 1
w 254 -253 235 0
w 254 -253 -235 0
w 255 254 236 0.112268
w 255 254 -236 0.130651
w 255 -254 236 0.456652
w 255 -254 -236 0.210367
w 256 255 237 0.517965
w 256 255 -237 0.741677
w 256 -255 237 0.206685
w 256 -255 -237 0.900785
w 257 256 238 1
w 257 256 -238 1
w 257 -256 238 1
w 257 -256 -238 0
w 258 257 239 1
w 258 257 -239 0
w 258 -257 239 1
w 258 -257 -239 0
w 259 258 240 0
w 259 258 -240 1
w 259 -258 240 1
w 259 -258 -240 1
w 260 259 241 1
w 260 259 -241 0
w 260 -259 241 1
w 260 -259 -241 1
w 261 260 242 0
w 261 260 -242 1
w 261 -260 242 0
w 261 -260 -242 1
w 262 261 243 1
w 262 261 -243 0
w 262 -261 243 1
w 262 -261 -243 0
w 263 262 244 1
w 263 262 -244 1
w 263 -262 244 1
w 263 -262 -244 0
w 264 263 245 0.487059
w 264 263 -245 0.0403969
w 264 -263 245 0.108793
w 264 -263 -245 0.958939
w 265 264 246 1
w 265 264 -246 0
w 265 -264 246 1
w 265 -264 -246 1
w 266 265 247 1
w 266 265 -247 0
w 266 -265 247 0
w 266 -265 -247 0
w 267 248 0.488559
w 267 -248 0.933734
w 268 267 249 1
w 268 267 -249 0
w 268 -267 249 1
w 268 -267 -249 0
w 269 268 250 1
w 269 268 -250 0
w 269 -268 250 1
w 269 -268 -250 1
w 270 269 251 0
w 270 269 -251 1
w 270 -269 251 1
w 270 -269 -251 1
w 271 270 252 1
w 271 270 -252 1
w 271 -270 252 0
w 271 -270 -252 1
w 272 271 253 0
w 272 271 -253 1
w 272 -271 253 1
w 272 -271 -253 0
w 273 272 254 1
w 273 272 -254 0
w 273 -272 254 1
w 273 -272 -254 0
w 274 273 255 1
w 274 273 -255 1
w 274 -273 255 1
w 274 -273 -255 0
w 275 274 256 1
w 275 274 -256 0
w 275 -274 256 1
w 275 -274 -256 0
w 276 275 257 1
w 276 275 -257 1
w 276 -275 257 1
w 276 -275 -257 0
w 277 276 258 0.393915
w 277 276 -258 0.179771
w 277 -276 258 0.857295
w 277 -276 -258 0.815462
w 278 277 259 1
w 278 277 -259 0
w 278 -277 259 1
w 278 -277 -259 0
w 279 278 260 1
w 279 278 -260 0
w 279 -278 260 1
w 279 -278 -260 1
w 280 279 261 0
w 280 279 -261 0
w 280 -279 261 0
w 280 -279 -261 1
w 281 280 262 1
w 281 280 -262 1
w 281 -280 262 0
w 281 -280 -262 1
w 282 281 263 1
w 282 281 -263 0
w 282 -281 263 0
w 282 -281 -263 0
w 283 282 264 0
w 283 282 -264 1
w 283 -282 264 0
w 283 -282 -264 0
w 284 283 265 1
w 284 283 -265 1
w 284 -283 265 0
w 284 -283 -265 1
w 285 284 266 1
w 285 284 -266 0
w 285 -284 266 1
w 285 -284 -266 0
w 286 267 0.0475211
w 286 -267 0.899316
w 287 286 268 0
w 287 286 -268 0
w 287 -286 268 1
w 287 -286 -268 1
w 288 287 269 0.649756
w 288 287 -269 0.207948
w 288 -287 269 0.981761
w 288 -287 -269 0.0899529
w 289 288 270 1
w 289 288 -270 0
w 289 -288 270 0
w 289 -288 -270 1
w 290 289 271 0.276285
w 290 289 -271 0.772452
w 290 -289 271 0.267299
w 290 -289 -271 0.653512
w 291 290 272 1
w 291 290 -272 1
w 291 -290 272 0
w 291 -290 -272 0
w 292 291 273 0.632549
w 292 291 -273 0.382986
w 292 -291 273 0.682991
w 292 -291 -273 0.68007
w 293 292 274 0
w 293 292 -274 0
w 293 -292 274 1
w 293 -292 -274 0
w 294 293 275 0
w 294 293 -275 0
w 294 -293 275 1
w 294 -293 -275 1
w 295 294 276 0
w 295 294 -276 1
w 295 -294 276 0
w 295 -294 -276 1
w 296 295 277 1
w 296 295 -277 1
w 296 -295 277 1
w 296 -295 -277 0
w 297 296 278 1
w 297 296 -278 1
w 297 -296 278 0
w 297 -296 -278 1
w 298 297 279 1
w 298 297 -279 1
w 298 -297 279 1
w 298 -297 -279 0
w 299 298 280 1
w 299 298 -280 0
w 299 -298 280 1
w 299 -298 -280 1
w 300 299 281 0.226289
w 300 299 -281 0.909524
w 300 -299 281 0.58953
w 300 -299 -281 0.667006
w 301 300 282 1
w 301 300 -282 0
w 301 -300 282 1
w 301 -300 -282 1
w 302 301 283 0.0810704
w 302 301 -283 0.92351
w 302 -301 283 0.833508
w 302 -301 -283 0.107685
w 303 302 284 0.199881
w 303 302 -284 0.66932
w 303 -302 284 0.571649
w 303 -302 -284 0.893635
w 304 303 285 0
w 304 303 -285 0
w 304 -303 285 1
w 304 -303 -285 1
w 305 286 0
w 305 -286 1
w 306 305 287 1
w 306 305 -287 0
w 306 -305 287 0
w 306 -305 -287 0
w 307 306 288 0
w 307 306 -288 1
w 307 -306 288 0
w 307 -306 -288 1
w 308 307 289 1
w 308 307 -289 1
w 308 -307 289 0
w 308 -307 -289 0
w 309 308 290 0
w 309 308 -290 0
w 309 -308 290 1
w 309 -308 -290 1
w 310 309 291 0
w 310 309 -291 0
w 310 -309 291 1
w 310 -309 -291 0
w 311 310 292 1
w 311 310 -292 1
w 311 -310 292 1
w 311 -310 -292 0
w 312 311 293 1
w 312 311 -293 0
w 312 -311 293 0
w 312 -311 -293 0
w 313 312 294 0.750033
w 313 312 -294 0.316798
w 313 -312 294 0.772742
w 313 -312 -294 0.381581
w 314 313 295 0.130152
w 314 313 -295 0.721098
w 314 -313 295 0.96439
w 314 -313 -295 0.465181
w 315 314 296 0
w 315 314 -296 1
w 315 -314 296 1
w 315 -314 -296 0
w 316 315 297 0
w 316 315 -297 1
w 316 -315 297 0
w 316 -315 -297 0
w 317 316 298 1
w 317 316 -298 0
w 317 -316 298 0
w 317 -316 -298 0
w 318 317 299 0
w 318 317 -299 0
w 318 -317 299 0
w 318 -317 -299 1
w 319 318 300 0.789318
w 319 318 -300 0.807124
w 319 -318 300 0.146186
w 319 -318 -300 0.722212
w 320 319 301 0.867284
w 320 319 -301 0.686602
w 320 -319 301 0.402457
w 320 -319 -301 0.0089687
w 321 320 302 1
w 321 320 -302 0
w 321 -320 302 1
w 321 -320 -302 0
w 322 321 303 1
w 322 321 -303 0
w 322 -321 303 0
w 322 -321 -303 0
w 323 322 304 0.916451
w 323 322 -304 0.13359
w 323 -322 304 0.857585
w 323 -322 -304 0.643495
w 324 305 1
w 324 -305 0
w 325 324 306 0.433098
w 325 324 -306 0.422184
w 325 -324 306 0.907902
w 325 -324 -306 0.197703
w 326 325 307 1
w 326 325 -307 0
w 326 -325 307 1
w 326 -325 -307 0
w 327 326 308 1
w 327 326 -308 1
w 327 -326 308 1
w 327 -326 -308 0
w 328 327 309 1
w 328 327 -309 1
w 328 -327 309 0
w 328 -327 -309 1
w 329 328 310 0
w 329 328 -310 0
w 329 -328 310 1
w 329 -328 -310 0
w 330 329 311 0.295095
w 330 329 -311 0.0884503
w 330 -329 311 0.622783
w 330 -329 -311 0.713621
w 331 330 312 1
w 331 330 -312 0
w 331 -330 312 0
w 331 -330 -312 1
w 332 331 313 1
w 332 331 -313 1
w 332 -331 313 1
w 332 -331 -313 0
w 333 332 314 0.899485
w 333 332 -314 0.225831
w 333 -332 314 0.826291
w 333 -332 -314 0.119627
w 334 333 315 1
w 334 333 -315 1
w 334 -333 315 0
w 334 -333 -315 1
w 335 334 316 1
w 335 334 -316 0
w 335 -334 316 0
w 335 -334 -316 0
w 336 335 317 1
w 336 335 -317 1
w 336 -335 317 1
w 336 -335 -317 0
w 337 336 318 0.835647
w 337 336 -318 0.625444
w 337 -336 318 0.946366
w 337 -336 -318 0.295945
w 338 337 319 1
w 338 337 -319 0
w 338 -337 319 0
w 338 -337 -319 0
w 339 338 320 1
w 339 338 -320 0
w 339 -338 320 1
w 339 -338 -320 1
w 340 339 321 0.251236
w 340 339 -321 0.663928
w 340 -339 321 0.0169065
w 340 -339 -321 0.186573
w 341 340 322 1
w 341 340 -322 0
w 341 -340 322 0
w 341 -340 -322 0
w 342 341 323 0
w 342 341 -323 1
w 342 -341 323 0
w 342 -341 -323 1
w 343 324 1
w 343 -324 0
w 344 343 325 0
w 344 343 -325 0
w 344 -343 325 1
w 344 -343 -325 1
w 345 344 326 1
w 345 344 -326 1
w 345 -344 326 0
w 345 -344 -326 0
w 346 345 327 0
w 346 345 -327 1
w 346 -345 327 0
w 346 -345 -327 0
w 347 346 328 0
w 347 346 -328 1
w 347 -346 328 0
w 347 -346 -328 0
w 348 347 329 1
w 348 347 -329 0
w 348 -347 329 1
w 348 -347 -329 0
w 349 348 330 0
w 349 348 -330 0
w 349 -348 330 0
w 349 -348 -330 1
w 350 349 331 0
w 350 349 -331 1
w 350 -349 331 1
w 350 -349 -331 1
w 351 350 332 0.381945
w 351 350 -332 0.422927
w 351 -350 332 0.265832
w 351 -350 -332 0.0908038
w 352 351 333 0.633925
w 352 351 -333 0.678247
w 352 -351 333 0.957675
w 352 -351 -333 0.748719
w 353 352 334 1
w 353 352 -334 1
w 353 -352 334 1
w 353 -352 -334 0
w 354 353 335 0
w 354 353 -335 1
w 354 -353 335 0
w 354 -353 -335 1
w 355 354 336 1
w 355 354 -336 1
w 355 -354 336 0
w 355 -354 -336 1
w 356 355 337 1
w 356 355 -337 1
w 356 -355 337 1
w 356 -355 -337 0
w 357 356 338 1
w 357 356 -338 0
w 357 -356 338 1
w 357 -356 -338 0
w 358 357 339 0
w 358 357 -339 1
w 358 -357 339 0
w 358 -357 -339 1
w 359 358 340 1
w 359 358 -340 0
w 359 -358 340 1
w 359 -358 -340 1
w 360 359 341 1
w 360 359 -341 0
w 360 -359 341 1
w 360 -359 -341 0
w 361 360 342 0
w 361 360 -342 1
w 361 -360 342 0
w 361 -360 -342 1